[VALIDATOR STDOUT]
Checking plan: /home/jfan5/Safety-gen/runs/benchmark/optic/blocksworld_20260129_162121/blocksworld/optic_results/bw_ops3_n03_seed3001.plan
Plan executed successfully - checking goal
Plan valid
Final value: 4 

Successful plans:
Value: 4
 /home/jfan5/Safety-gen/runs/benchmark/optic/blocksworld_20260129_162121/blocksworld/optic_results/bw_ops3_n03_seed3001.plan 4
